p cnf 9 27
-2 0
8 -1 0
8 3 0
-3 -1 0
-6 -3 -9 0
-8 8 -6 0
-5 0
9 0
-6 0
-3 0
-6 3 0
-7 -6 -5 0
2 4 0
8 9 1 0
-7 2 -3 0
-7 0
4 -1 7 0
-8 1 -5 -4 0
2 0
-2 0
6 -9 0
9 -3 0
9 -6 3 -1 0
1 4 7 0
8 -4 -1 0
-8 0
-3 0
